1 1 2 0
1 -1 3 0
1 -4 -5 0
1 4 6 0
1 4 -2 0
1 -4 1 0
1 -4 3 0
1 -7 8 0
1 7 6 0
1 -7 -2 0
1 7 -9 0
1 -7 10 0
1 7 -11 0
1 -7 -3 0
1 -7 -12 0
1 -8 13 0
1 8 14 0
1 8 -6 0
1 8 -2 0
1 8 9 0
1 -8 -10 0
1 -8 7 0
1 8 -12 0
1 -2 -15 0
1 2 -16 0
1 -2 17 0
1 2 -4 0
1 -2 -18 0
1 2 -19 0
1 -2 20 0
1 -2 -21 0
1 2 7 0
1 -2 12 0
1 -12 22 0
1 -12 -15 0
1 -12 16 0
1 12 8 0
1 12 4 0
1 -12 2 0
1 -12 -20 0
1 -12 -21 0
1 12 7 0
1 -12 1 0
1 6 -15 0
1 6 23 0
1 -6 4 0
1 6 24 0
1 -6 -19 0
1 6 -25 0
1 -6 -26 0
1 6 -7 0
1 6 -1 0
1 -6 -3 0
1 -3 15 0
1 3 23 0
1 3 8 0
1 -3 -4 0
1 3 -6 0
1 3 -19 0
1 -3 25 0
1 3 -26 0
1 3 7 0
1 -21 -27 0
1 -21 -2 0
1 21 9 0
1 -21 26 0
1 21 -12 0
1 17 -13 0
1 -17 -27 0
1 17 -28 0
1 -17 -2 0
1 -17 9 0
1 -17 21 0
1 17 -12 0
1 -20 -13 0
1 20 -29 0
1 -20 -30 0
1 -20 2 0
1 -20 10 0
1 20 31 0
1 -20 -32 0
1 -20 12 0
1 16 13 0
1 -16 -27 0
1 16 29 0
1 16 -23 0
1 16 -30 0
1 16 -2 0
1 -16 -10 0
1 16 20 0
1 -16 31 0
1 -16 32 0
1 16 -12 0
1 -10 -33 0
1 -10 27 0
1 -10 16 0
1 10 -17 0
1 10 8 0
1 10 -34 0
1 10 35 0
1 -10 -36 0
1 10 37 0
1 -10 21 0
1 -10 -7 0
1 -10 38 0
1 -27 33 0
1 27 39 0
1 27 40 0
1 27 -16 0
1 27 -17 0
1 -27 8 0
1 -27 -34 0
1 -27 35 0
1 27 -36 0
1 27 10 0
1 -27 21 0
1 27 7 0
1 27 38 0
1 9 -13 0
1 -9 -41 0
1 9 15 0
1 -9 -16 0
1 -9 8 0
1 -9 -34 0
1 9 19 0
1 9 20 0
1 -9 -7 0
1 9 -38 0
1 13 41 0
1 13 42 0
1 13 15 0
1 -13 -16 0
1 -13 -17 0
1 -13 8 0
1 -13 34 0
1 13 9 0
1 13 -43 0
1 13 -19 0
1 13 20 0
1 -13 -21 0
1 13 7 0
1 -13 38 0
1 36 39 0
1 -36 27 0
1 36 -29 0
1 36 30 0
1 -36 10 0
1 -36 19 0
1 -36 -31 0
1 36 -32 0
1 39 27 0
1 -39 -29 0
1 -39 31 0
1 35 33 0
1 -35 29 0
1 35 -30 0
1 -35 -43 0
1 -35 10 0
1 35 31 0
1 35 -32 0
1 -33 41 0
1 33 -27 0
1 33 29 0
1 33 30 0
1 33 35 0
1 -33 10 0
1 33 31 0
1 33 32 0
1 -32 -33 0
1 32 -39 0
1 32 -16 0
1 -32 -44 0
1 -32 36 0
1 32 -20 0
1 32 45 0
1 -30 33 0
1 -30 39 0
1 30 -16 0
1 30 46 0
1 -30 -44 0
1 30 36 0
1 -30 20 0
1 30 32 0
1 -30 -47 0
1 31 39 0
1 -31 -16 0
1 -31 -29 0
1 -31 -44 0
1 -31 -34 0
1 -31 35 0
1 -31 -36 0
1 31 -48 0
1 29 33 0
1 29 -39 0
1 29 -16 0
1 29 -49 0
1 -29 -44 0
1 29 35 0
1 29 20 0
1 29 -31 0
1 -29 47 0
1 29 -38 0
1 -50 -51 0
1 50 -52 0
1 -50 -5 0
1 50 -53 0
1 -50 -54 0
1 50 -1 0
1 5 51 0
1 5 -52 0
1 -5 4 0
1 -5 55 0
1 5 -53 0
1 5 -54 0
1 5 -50 0
1 -11 51 0
1 11 -52 0
1 -11 -56 0
1 11 -14 0
1 11 53 0
1 11 54 0
1 11 57 0
1 11 58 0
1 -11 7 0
1 -11 59 0
1 -14 -51 0
1 -14 52 0
1 14 -56 0
1 14 60 0
1 -14 -8 0
1 14 -61 0
1 14 -53 0
1 14 -57 0
1 14 -58 0
1 -14 -11 0
1 52 62 0
1 52 -63 0
1 -52 -28 0
1 52 -14 0
1 -52 5 0
1 52 -54 0
1 -52 -64 0
1 -52 -26 0
1 52 50 0
1 -54 -52 0
1 54 -62 0
1 -54 -23 0
1 -54 28 0
1 -54 14 0
1 -54 -5 0
1 54 64 0
1 54 -25 0
1 -54 50 0
1 -51 65 0
1 -51 62 0
1 -51 66 0
1 51 67 0
1 51 14 0
1 51 5 0
1 51 53 0
1 -51 -64 0
1 -51 -68 0
1 -51 11 0
1 -51 -50 0
1 -53 -51 0
1 53 -67 0
1 53 14 0
1 53 5 0
1 -53 -69 0
1 -53 64 0
1 53 68 0
1 -53 70 0
1 53 11 0
1 -53 50 0
1 26 -52 0
1 26 56 0
1 26 -28 0
1 -26 -60 0
1 -26 6 0
1 26 54 0
1 -26 -58 0
1 -26 21 0
1 -26 -70 0
1 26 3 0
1 -28 -52 0
1 28 -56 0
1 -28 -17 0
1 -28 -60 0
1 28 67 0
1 -28 6 0
1 28 -54 0
1 28 58 0
1 28 -26 0
1 -25 -52 0
1 25 23 0
1 -25 56 0
1 25 -60 0
1 -25 -71 0
1 25 -6 0
1 -25 -54 0
1 25 20 0
1 -25 68 0
1 -25 -72 0
1 25 -73 0
1 23 58 0
1 -23 -16 0
1 23 56 0
1 -23 -66 0
1 -23 -60 0
1 -23 54 0
1 23 57 0
1 23 25 0
1 -23 72 0
1 23 73 0
1 -23 -3 0
1 60 -58 0
1 60 15 0
1 -60 -23 0
1 60 28 0
1 -60 -14 0
1 -60 43 0
1 -60 19 0
1 60 26 0
1 -60 -11 0
1 -58 74 0
1 -58 -41 0
1 -58 23 0
1 58 -60 0
1 58 -14 0
1 -58 -43 0
1 58 25 0
1 58 75 0
1 -58 26 0
1 56 -74 0
1 56 -76 0
1 -56 -62 0
1 -56 -23 0
1 56 77 0
1 56 28 0
1 -56 -14 0
1 -56 78 0
1 -56 79 0
1 -56 -57 0
1 -56 -64 0
1 -56 25 0
1 -56 26 0
1 56 -11 0
1 57 74 0
1 -57 76 0
1 -57 62 0
1 57 -23 0
1 57 56 0
1 57 -28 0
1 57 -14 0
1 57 78 0
1 57 79 0
1 -57 64 0
1 57 25 0
1 57 -80 0
1 -57 -26 0
1 -57 -11 0
1 -19 13 0
1 -19 60 0
1 19 -81 0
1 -19 6 0
1 19 9 0
1 -19 36 0
1 19 -64 0
1 -19 -58 0
1 -19 -72 0
1 -19 73 0
1 -19 -3 0
1 19 12 0
1 -15 13 0
1 15 -39 0
1 -15 62 0
1 -15 60 0
1 -15 81 0
1 -15 -6 0
1 15 -2 0
1 15 9 0
1 15 -19 0
1 -15 -58 0
1 -15 73 0
1 -15 -3 0
1 43 -22 0
1 43 13 0
1 43 41 0
1 -43 60 0
1 43 -81 0
1 -43 71 0
1 -43 24 0
1 43 18 0
1 43 35 0
1 -43 -79 0
1 43 58 0
1 43 -72 0
1 43 73 0
1 -43 -82 0
1 -41 33 0
1 41 76 0
1 -41 -60 0
1 41 24 0
1 41 -18 0
1 41 -9 0
1 -41 -43 0
1 -41 72 0
1 41 -73 0
1 41 82 0
1 -71 15 0
1 -71 83 0
1 -71 -84 0
1 71 -85 0
1 71 34 0
1 71 -43 0
1 71 -19 0
1 71 -25 0
1 -71 -73 0
1 -71 86 0
1 71 48 0
1 71 -38 0
1 73 15 0
1 -73 -23 0
1 -73 -71 0
1 -73 83 0
1 -73 -84 0
1 -73 34 0
1 -73 -87 0
1 73 -43 0
1 -73 19 0
1 -73 86 0
1 -73 48 0
1 73 -38 0
1 -81 -74 0
1 -81 41 0
1 81 15 0
1 81 83 0
1 81 43 0
1 -81 -19 0
1 81 25 0
1 81 -72 0
1 -81 86 0
1 81 -88 0
1 72 -74 0
1 72 41 0
1 72 15 0
1 72 -23 0
1 -72 -81 0
1 -72 -83 0
1 -72 89 0
1 -72 90 0
1 -72 86 0
1 72 -88 0
1 -34 -29 0
1 -34 71 0
1 34 9 0
1 34 -18 0
1 34 31 0
1 -34 73 0
1 -34 82 0
1 -38 74 0
1 -38 -13 0
1 38 -22 0
1 -38 29 0
1 -38 71 0
1 -38 24 0
1 38 34 0
1 -38 -9 0
1 -38 10 0
1 -38 -31 0
1 -38 -82 0
1 -84 -42 0
1 84 29 0
1 -84 -89 0
1 84 -18 0
1 -84 91 0
1 84 -37 0
1 -84 -73 0
1 -84 48 0
1 84 -82 0
1 -48 -22 0
1 -48 -42 0
1 -48 40 0
1 -48 -29 0
1 -48 71 0
1 48 -84 0
1 -48 24 0
1 48 -18 0
1 48 -91 0
1 48 37 0
1 48 -82 0
1 -48 -73 0
1 48 -88 0
1 18 -22 0
1 -18 -41 0
1 18 -92 0
1 18 44 0
1 18 84 0
1 -18 -2 0
1 18 -43 0
1 -18 93 0
1 18 -47 0
1 18 38 0
1 22 94 0
1 22 -41 0
1 -22 -92 0
1 22 44 0
1 22 34 0
1 -22 18 0
1 -22 -12 0
1 -22 95 0
1 -22 93 0
1 22 -47 0
1 22 48 0
1 22 38 0
1 24 -92 0
1 -24 96 0
1 24 -83 0
1 -24 84 0
1 -24 6 0
1 24 43 0
1 24 -95 0
1 24 -86 0
1 24 48 0
1 24 82 0
1 -82 -41 0
1 -82 -92 0
1 -82 96 0
1 -82 83 0
1 82 24 0
1 82 -34 0
1 -82 -43 0
1 -82 3 0
1 -82 95 0
1 82 -86 0
1 -82 -48 0
1 -82 -38 0
1 -44 22 0
1 44 -42 0
1 44 29 0
1 -44 40 0
1 -44 30 0
1 -44 83 0
1 -44 -18 0
1 -44 91 0
1 44 -37 0
1 -44 -31 0
1 -44 -32 0
1 44 -47 0
1 -47 42 0
1 47 40 0
1 -47 -29 0
1 -47 -30 0
1 -47 44 0
1 47 18 0
1 47 91 0
1 47 31 0
1 -47 32 0
1 47 86 0
1 -97 22 0
1 97 42 0
1 97 49 0
1 97 -93 0
1 -97 -46 0
1 97 -96 0
1 -97 -91 0
1 -97 -37 0
1 97 -45 0
1 -93 22 0
1 -93 -42 0
1 93 -40 0
1 -93 -46 0
1 -93 97 0
1 93 18 0
1 -93 -91 0
1 93 37 0
1 -93 -98 0
1 -37 -99 0
1 37 100 0
1 -37 -101 0
1 -37 -44 0
1 -37 -84 0
1 37 102 0
1 37 -103 0
1 37 -93 0
1 37 47 0
1 40 27 0
1 -40 -99 0
1 -40 104 0
1 40 -100 0
1 -40 -101 0
1 40 -97 0
1 -40 -84 0
1 -40 -102 0
1 -40 -37 0
1 -40 103 0
1 -40 93 0
1 -40 -47 0
1 40 48 0
1 -91 42 0
1 91 -99 0
1 -91 105 0
1 -91 97 0
1 -91 44 0
1 -91 -84 0
1 -91 106 0
1 -91 -107 0
1 -91 -108 0
1 -91 95 0
1 91 93 0
1 91 -47 0
1 -91 48 0
1 -42 13 0
1 42 -109 0
1 42 -99 0
1 -42 -105 0
1 -42 92 0
1 42 97 0
1 -42 -44 0
1 -42 84 0
1 42 106 0
1 42 -91 0
1 42 -108 0
1 -42 -93 0
1 -42 -48 0
1 101 49 0
1 -101 46 0
1 101 92 0
1 101 98 0
1 101 -37 0
1 101 -103 0
1 -101 45 0
1 103 49 0
1 -103 -101 0
1 -103 46 0
1 103 37 0
1 103 95 0
1 103 -45 0
1 100 -40 0
1 -100 -49 0
1 -100 -105 0
1 -100 -46 0
1 -100 -37 0
1 100 -98 0
1 102 40 0
1 102 100 0
1 102 -49 0
1 -102 -46 0
1 102 37 0
1 102 98 0
1 -102 45 0
1 45 110 0
1 45 100 0
1 45 101 0
1 45 46 0
1 -45 97 0
1 45 -111 0
1 -45 -102 0
1 -45 103 0
1 -45 -32 0
1 45 -112 0
1 46 110 0
1 -46 -100 0
1 46 30 0
1 46 101 0
1 46 -113 0
1 -46 -97 0
1 -46 111 0
1 -46 -102 0
1 46 -103 0
1 -46 93 0
1 -46 -45 0
1 98 110 0
1 98 114 0
1 -98 -100 0
1 98 49 0
1 -98 97 0
1 -98 -111 0
1 98 -115 0
1 -98 106 0
1 -98 -102 0
1 -98 -31 0
1 98 -103 0
1 98 116 0
1 -98 -93 0
1 49 110 0
1 -49 114 0
1 -49 -99 0
1 49 -29 0
1 -49 -100 0
1 -49 -97 0
1 49 106 0
1 49 102 0
1 -49 103 0
1 -49 93 0
1 117 118 0
1 117 119 0
1 117 55 0
1 117 -50 0
1 55 -118 0
1 -55 119 0
1 -55 5 0
1 55 120 0
1 55 117 0
1 59 -121 0
1 59 -61 0
1 59 -120 0
1 -59 122 0
1 59 -123 0
1 -59 11 0
1 59 -124 0
1 61 118 0
1 -61 119 0
1 -61 -121 0
1 -61 14 0
1 61 125 0
1 61 -120 0
1 -61 124 0
1 61 122 0
1 -122 66 0
1 -122 -119 0
1 122 67 0
1 122 -61 0
1 122 55 0
1 122 -68 0
1 -122 126 0
1 122 70 0
1 -122 -117 0
1 119 122 0
1 119 66 0
1 -119 127 0
1 -119 67 0
1 119 61 0
1 -119 -55 0
1 119 70 0
1 -119 59 0
1 119 117 0
1 -120 -128 0
1 -120 -118 0
1 -120 55 0
1 -120 -59 0
1 120 -117 0
1 118 129 0
1 -118 61 0
1 118 -55 0
1 118 -120 0
1 118 59 0
1 118 117 0
1 70 51 0
1 -70 -119 0
1 -70 -67 0
1 70 121 0
1 -70 -125 0
1 -70 -53 0
1 -70 122 0
1 70 26 0
1 -70 -123 0
1 67 51 0
1 67 119 0
1 67 121 0
1 67 -123 0
1 -67 53 0
1 -67 122 0
1 67 -70 0
1 67 124 0
1 -68 -51 0
1 -68 66 0
1 68 125 0
1 -68 -130 0
1 -68 131 0
1 -68 -53 0
1 -68 -25 0
1 -68 -122 0
1 68 -123 0
1 68 124 0
1 -68 132 0
1 -66 -51 0
1 -66 -122 0
1 -66 -23 0
1 -66 119 0
1 -66 -125 0
1 66 130 0
1 66 131 0
1 -66 -53 0
1 -66 -68 0
1 -66 -123 0
1 66 124 0
1 -124 -133 0
1 124 -76 0
1 124 -62 0
1 124 66 0
1 -124 -125 0
1 124 -134 0
1 124 -79 0
1 -124 64 0
1 124 -68 0
1 -124 -70 0
1 -125 133 0
1 125 62 0
1 -125 66 0
1 125 -67 0
1 -125 -61 0
1 125 135 0
1 125 -134 0
1 125 -79 0
1 125 64 0
1 -125 68 0
1 -125 70 0
1 125 59 0
1 123 -133 0
1 123 -66 0
1 -123 121 0
1 -123 68 0
1 123 -70 0
1 -123 136 0
1 -123 -59 0
1 -121 133 0
1 121 66 0
1 121 -67 0
1 -121 137 0
1 121 -61 0
1 121 123 0
1 121 -134 0
1 -121 68 0
1 -121 -70 0
1 64 -138 0
1 64 -52 0
1 64 62 0
1 -64 56 0
1 -64 125 0
1 -64 130 0
1 64 -131 0
1 -64 -53 0
1 64 54 0
1 -64 57 0
1 -64 -19 0
1 -64 -124 0
1 -64 132 0
1 62 -138 0
1 -62 -51 0
1 -62 15 0
1 62 -52 0
1 -62 -125 0
1 62 -130 0
1 -62 -131 0
1 62 53 0
1 -62 -54 0
1 -62 57 0
1 -62 64 0
1 62 -124 0
1 -62 132 0
1 79 138 0
1 79 76 0
1 -79 -63 0
1 -79 56 0
1 79 -125 0
1 -79 130 0
1 -79 69 0
1 79 43 0
1 79 124 0
1 79 -132 0
1 76 -138 0
1 76 65 0
1 -76 -63 0
1 76 56 0
1 -76 125 0
1 -76 130 0
1 76 -131 0
1 -76 69 0
1 -76 79 0
1 76 -57 0
1 76 139 0
1 -76 -132 0
1 138 -74 0
1 138 76 0
1 -138 -62 0
1 -138 -66 0
1 138 140 0
1 138 -78 0
1 -138 -79 0
1 138 68 0
1 -131 74 0
1 -131 -138 0
1 131 76 0
1 131 -62 0
1 -131 -66 0
1 131 -140 0
1 131 -89 0
1 131 141 0
1 -131 -78 0
1 131 79 0
1 -131 64 0
1 -131 -142 0
1 131 -88 0
1 -132 -76 0
1 -132 -62 0
1 -132 -143 0
1 -132 -130 0
1 132 140 0
1 -132 -144 0
1 -132 134 0
1 132 -64 0
1 132 -68 0
1 132 145 0
1 130 133 0
1 -130 62 0
1 130 66 0
1 130 -140 0
1 -130 -146 0
1 130 -144 0
1 -130 79 0
1 -130 -64 0
1 -130 -68 0
1 130 -142 0
1 130 132 0
1 -130 -145 0
1 78 74 0
1 78 -65 0
1 -78 -63 0
1 78 -56 0
1 -78 -60 0
1 -78 -81 0
1 78 -131 0
1 78 134 0
1 -78 -69 0
1 78 -139 0
1 -78 57 0
1 -78 -58 0
1 78 -72 0
1 -74 65 0
1 -74 -63 0
1 74 56 0
1 -74 60 0
1 -74 -81 0
1 -74 -131 0
1 -74 -69 0
1 -74 139 0
1 -74 -57 0
1 -89 -138 0
1 89 -65 0
1 89 63 0
1 -89 -77 0
1 -89 147 0
1 -89 -84 0
1 -89 -131 0
1 89 -69 0
1 89 72 0
1 89 -88 0
1 88 -138 0
1 88 65 0
1 88 -63 0
1 88 77 0
1 88 -147 0
1 -88 81 0
1 -88 89 0
1 -88 -131 0
1 88 -69 0
1 88 139 0
1 -88 -75 0
1 -88 72 0
1 88 -48 0
1 88 -145 0
1 -63 -76 0
1 -63 148 0
1 63 -149 0
1 63 -96 0
1 63 89 0
1 63 79 0
1 -63 -139 0
1 63 150 0
1 -63 86 0
1 -63 -88 0
1 139 74 0
1 139 76 0
1 -139 -63 0
1 139 149 0
1 -139 -96 0
1 -139 -83 0
1 139 89 0
1 -139 -78 0
1 139 -54 0
1 -139 -79 0
1 139 151 0
1 139 152 0
1 -139 -86 0
1 139 88 0
1 65 -74 0
1 -65 51 0
1 -65 76 0
1 65 153 0
1 -65 149 0
1 65 154 0
1 -65 -140 0
1 -65 -89 0
1 65 69 0
1 -65 -155 0
1 -65 -142 0
1 -65 88 0
1 -69 74 0
1 -69 -76 0
1 69 65 0
1 -69 -149 0
1 69 -154 0
1 -69 -140 0
1 69 -53 0
1 -69 79 0
1 69 152 0
1 69 155 0
1 69 -142 0
1 69 -88 0
1 -83 -63 0
1 83 77 0
1 83 44 0
1 83 71 0
1 -83 24 0
1 83 139 0
1 -83 75 0
1 -83 73 0
1 83 -86 0
1 83 82 0
1 86 -63 0
1 -86 77 0
1 -86 -147 0
1 86 -81 0
1 -86 71 0
1 -86 -83 0
1 -86 24 0
1 -86 80 0
1 -86 75 0
1 86 -47 0
1 -86 -142 0
1 -96 -90 0
1 -96 -77 0
1 96 97 0
1 -96 154 0
1 -96 -85 0
1 96 139 0
1 -96 -80 0
1 -96 -150 0
1 -96 87 0
1 96 82 0
1 -150 -63 0
1 150 -77 0
1 150 147 0
1 150 -96 0
1 -150 156 0
1 150 85 0
1 150 24 0
1 150 139 0
1 -150 -75 0
1 150 -93 0
1 150 90 0
1 150 155 0
1 -150 87 0
1 150 82 0
1 147 -157 0
1 147 -105 0
1 147 -60 0
1 -147 92 0
1 -147 96 0
1 -147 83 0
1 147 89 0
1 147 158 0
1 147 108 0
1 147 95 0
1 147 -150 0
1 147 88 0
1 75 -157 0
1 -75 -105 0
1 75 92 0
1 75 -147 0
1 -75 -96 0
1 -75 -83 0
1 75 89 0
1 -75 -158 0
1 -75 108 0
1 75 58 0
1 75 -95 0
1 -75 86 0
1 -77 56 0
1 -77 159 0
1 -77 160 0
1 -77 -149 0
1 77 96 0
1 77 -158 0
1 77 -80 0
1 -77 -161 0
1 77 -152 0
1 -77 -150 0
1 77 86 0
1 80 162 0
1 -80 -77 0
1 -80 159 0
1 -80 149 0
1 -80 96 0
1 -80 83 0
1 -80 -89 0
1 80 158 0
1 -80 -57 0
1 -80 -161 0
1 -80 152 0
1 80 -150 0
1 -80 86 0
1 -80 88 0
1 -92 -22 0
1 -92 -42 0
1 92 -75 0
1 -92 101 0
1 -92 147 0
1 -92 -149 0
1 -92 156 0
1 -92 85 0
1 -92 -24 0
1 -92 -18 0
1 -92 -91 0
1 92 -95 0
1 -92 90 0
1 -92 87 0
1 -92 -82 0
1 -95 -22 0
1 95 -42 0
1 -95 -92 0
1 95 -147 0
1 95 156 0
1 -95 -85 0
1 -95 -24 0
1 95 18 0
1 -95 91 0
1 -95 -103 0
1 -95 -75 0
1 95 -152 0
1 95 -90 0
1 -95 87 0
1 -95 -82 0
1 105 94 0
1 -105 -42 0
1 -105 159 0
1 -105 147 0
1 105 156 0
1 -105 85 0
1 -105 163 0
1 -105 91 0
1 -105 75 0
1 105 -90 0
1 105 87 0
1 105 164 0
1 -108 94 0
1 -108 42 0
1 108 105 0
1 108 147 0
1 108 -156 0
1 108 -165 0
1 108 -163 0
1 108 -91 0
1 108 -102 0
1 -108 -161 0
1 -108 -90 0
1 85 -166 0
1 85 99 0
1 -85 105 0
1 -85 92 0
1 -85 96 0
1 85 -71 0
1 -85 -167 0
1 85 115 0
1 -85 106 0
1 85 -108 0
1 -85 -95 0
1 85 -87 0
1 87 -166 0
1 87 -114 0
1 87 99 0
1 87 105 0
1 -87 92 0
1 87 -85 0
1 -87 -167 0
1 -87 106 0
1 -87 -108 0
1 87 150 0
1 87 73 0
1 87 -168 0
1 156 169 0
1 -156 -157 0
1 -156 -105 0
1 156 90 0
1 156 92 0
1 156 -81 0
1 -156 -96 0
1 156 170 0
1 156 167 0
1 156 -171 0
1 156 158 0
1 -156 108 0
1 156 -150 0
1 90 166 0
1 -90 -157 0
1 -90 105 0
1 90 -92 0
1 90 -156 0
1 90 171 0
1 -90 -158 0
1 -90 -108 0
1 -90 -95 0
1 90 -72 0
1 -90 150 0
1 90 -172 0
1 99 94 0
1 -99 42 0
1 99 -157 0
1 -99 49 0
1 -99 -85 0
1 -99 165 0
1 99 163 0
1 -99 -106 0
1 -99 -91 0
1 -99 37 0
1 99 -98 0
1 -99 -164 0
1 106 99 0
1 106 40 0
1 -106 49 0
1 -106 85 0
1 -106 165 0
1 106 163 0
1 106 91 0
1 -106 -158 0
1 106 -37 0
1 -106 98 0
1 -106 -164 0
1 114 -94 0
1 -114 -169 0
1 114 -109 0
1 114 115 0
1 114 -163 0
1 114 107 0
1 114 -173 0
1 -114 -98 0
1 -114 164 0
1 115 94 0
1 115 -114 0
1 -115 109 0
1 115 49 0
1 115 85 0
1 -115 165 0
1 -115 -171 0
1 -115 163 0
1 -115 98 0
1 115 -87 0
1 163 -110 0
1 163 -94 0
1 -163 -99 0
1 -163 105 0
1 -163 -174 0
1 163 -111 0
1 -163 -106 0
1 -163 -175 0
1 163 -176 0
1 -94 -110 0
1 -94 -22 0
1 94 114 0
1 -94 -105 0
1 94 -177 0
1 94 -174 0
1 -94 111 0
1 94 115 0
1 -94 -163 0
1 -94 106 0
1 94 175 0
1 -94 -176 0
1 -165 -166 0
1 -165 114 0
1 -165 99 0
1 -165 -105 0
1 165 177 0
1 -165 -178 0
1 165 -24 0
1 -165 167 0
1 165 115 0
1 165 106 0
1 165 -108 0
1 -165 164 0
1 164 166 0
1 -164 114 0
1 164 99 0
1 -164 105 0
1 164 177 0
1 -164 -178 0
1 164 167 0
1 -164 115 0
1 -164 -165 0
1 -164 106 0
1 164 -175 0
1 -164 -82 0
1 164 -179 0
1 110 166 0
1 -110 94 0
1 -110 109 0
1 110 46 0
1 -110 163 0
1 110 98 0
1 -110 45 0
1 111 -110 0
1 -111 -94 0
1 -111 104 0
1 111 49 0
1 111 46 0
1 111 -167 0
1 -111 -163 0
1 111 107 0
1 -111 173 0
1 111 -98 0
1 111 -45 0
1 -176 94 0
1 -176 109 0
1 176 104 0
1 -176 180 0
1 -176 -113 0
1 -176 -174 0
1 -176 -163 0
1 -176 107 0
1 176 -179 0
1 -174 -109 0
1 174 104 0
1 174 107 0
1 -174 173 0
1 174 -112 0
1 -174 176 0
1 -173 -110 0
1 -173 114 0
1 -173 181 0
1 -173 -182 0
1 -173 -174 0
1 173 -111 0
1 -173 115 0
1 173 -37 0
1 173 -183 0
1 -173 184 0
1 -104 -110 0
1 -104 -114 0
1 104 -40 0
1 104 181 0
1 -104 182 0
1 104 -174 0
1 -104 -115 0
1 104 173 0
1 104 183 0
1 -104 -184 0
1 104 -176 0
1 -107 110 0
1 107 -109 0
1 -107 -185 0
1 -107 177 0
1 107 111 0
1 107 91 0
1 107 186 0
1 -107 176 0
1 109 110 0
1 109 114 0
1 109 -177 0
1 109 174 0
1 109 111 0
1 -109 115 0
1 -109 107 0
1 109 175 0
1 -109 -176 0
1 -184 -113 0
1 184 182 0
1 184 -173 0
1 -184 -116 0
1 184 112 0
1 -184 -175 0
1 182 -104 0
1 -182 180 0
1 182 -113 0
1 182 177 0
1 -182 -173 0
1 -182 116 0
1 -182 -112 0
1 182 184 0
1 183 104 0
1 -183 -180 0
1 183 181 0
1 -183 -113 0
1 183 -173 0
1 183 116 0
1 183 -112 0
1 183 -186 0
1 181 112 0
1 181 104 0
1 181 180 0
1 -181 113 0
1 181 173 0
1 -181 116 0
1 181 -183 0
1 112 181 0
1 112 182 0
1 112 -174 0
1 112 45 0
1 -112 -183 0
1 112 184 0
1 -112 -176 0
1 -113 -112 0
1 -113 -46 0
1 -113 -182 0
1 113 174 0
1 113 183 0
1 113 -184 0
1 -113 176 0
1 -116 -180 0
1 116 -181 0
1 -116 182 0
1 -116 174 0
1 116 98 0
1 116 183 0
1 -116 184 0
1 -116 -176 0
1 -180 -49 0
1 -180 181 0
1 -180 -182 0
1 -180 -174 0
1 180 -116 0
1 180 184 0
1 134 133 0
1 134 129 0
1 134 -127 0
1 -134 121 0
1 134 125 0
1 134 130 0
1 -134 -128 0
1 -134 -123 0
1 -134 124 0
1 134 -132 0
1 -133 -74 0
1 133 -129 0
1 -133 127 0
1 133 121 0
1 133 125 0
1 -133 -130 0
1 133 -134 0
1 -133 -128 0
1 -133 123 0
1 -133 124 0
1 -133 132 0
1 -144 -129 0
1 144 -137 0
1 -144 -130 0
1 -144 -89 0
1 144 -128 0
1 -144 -126 0
1 -144 -132 0
1 -145 129 0
1 145 -127 0
1 -145 -137 0
1 145 130 0
1 -145 -128 0
1 -145 126 0
1 -145 136 0
1 -145 -187 0
1 -145 132 0
1 -126 133 0
1 126 -154 0
1 -126 140 0
1 126 188 0
1 -126 -144 0
1 126 134 0
1 126 122 0
1 -126 -145 0
1 -127 -119 0
1 127 189 0
1 -127 140 0
1 127 144 0
1 -127 134 0
1 127 155 0
1 127 142 0
1 127 145 0
1 -128 -129 0
1 128 144 0
1 -128 134 0
1 -128 -120 0
1 128 190 0
1 -128 -145 0
1 -129 133 0
1 129 -118 0
1 129 -134 0
1 129 128 0
1 129 -145 0
1 140 138 0
1 -140 127 0
1 140 -135 0
1 -140 -83 0
1 -140 -130 0
1 -140 69 0
1 -140 126 0
1 140 -136 0
1 -140 142 0
1 140 -132 0
1 142 -138 0
1 142 132 0
1 -142 -65 0
1 142 127 0
1 -142 -137 0
1 -142 135 0
1 142 -130 0
1 -142 -140 0
1 142 -131 0
1 -142 -69 0
1 142 -126 0
1 142 136 0
1 142 86 0
1 -142 -187 0
1 154 -191 0
1 154 65 0
1 154 127 0
1 -154 137 0
1 154 -135 0
1 -154 -146 0
1 154 -141 0
1 154 -126 0
1 -154 -155 0
1 154 -187 0
1 154 -143 0
1 155 -191 0
1 155 65 0
1 -155 137 0
1 -155 -154 0
1 -155 -135 0
1 -155 -146 0
1 155 -141 0
1 155 69 0
1 -155 126 0
1 -155 150 0
1 155 136 0
1 155 -187 0
1 -155 143 0
1 -187 192 0
1 -187 159 0
1 -187 -149 0
1 187 -154 0
1 187 135 0
1 187 -144 0
1 -187 193 0
1 187 152 0
1 187 155 0
1 -187 -124 0
1 187 -142 0
1 -187 194 0
1 187 145 0
1 -135 125 0
1 135 154 0
1 -135 -195 0
1 -135 144 0
1 135 -193 0
1 -135 155 0
1 135 -142 0
1 -135 -145 0
1 136 -154 0
1 -136 -140 0
1 136 123 0
1 136 144 0
1 136 -155 0
1 -136 196 0
1 -136 -142 0
1 136 145 0
1 -137 192 0
1 -137 121 0
1 -137 -154 0
1 -137 197 0
1 -137 -140 0
1 137 -144 0
1 -137 136 0
1 -137 193 0
1 -137 142 0
1 137 145 0
1 149 191 0
1 149 77 0
1 -149 92 0
1 -149 -146 0
1 -149 141 0
1 -149 69 0
1 149 80 0
1 -149 -143 0
1 152 191 0
1 -152 65 0
1 152 63 0
1 -152 77 0
1 -152 -149 0
1 152 -135 0
1 -152 146 0
1 152 -141 0
1 152 -69 0
1 -152 139 0
1 -152 80 0
1 -152 -95 0
1 -152 187 0
1 -152 143 0
1 -159 -191 0
1 159 77 0
1 -159 105 0
1 -159 135 0
1 159 141 0
1 -159 198 0
1 -159 -151 0
1 159 -80 0
1 -159 -161 0
1 -159 187 0
1 159 143 0
1 -161 -191 0
1 161 -148 0
1 161 77 0
1 -161 -159 0
1 -161 -146 0
1 -161 -141 0
1 161 198 0
1 161 -151 0
1 -161 80 0
1 -161 -108 0
1 -161 187 0
1 -161 -143 0
1 191 138 0
1 191 199 0
1 191 200 0
1 -191 159 0
1 191 -149 0
1 -191 154 0
1 -191 -141 0
1 191 -201 0
1 191 -171 0
1 191 158 0
1 -191 -161 0
1 191 152 0
1 191 -155 0
1 -141 199 0
1 -141 169 0
1 -141 -157 0
1 -141 -159 0
1 -141 -149 0
1 -141 154 0
1 -141 131 0
1 -141 -201 0
1 141 -171 0
1 141 202 0
1 141 158 0
1 141 161 0
1 141 155 0
1 143 203 0
1 143 199 0
1 -143 204 0
1 -143 -192 0
1 143 -159 0
1 -143 149 0
1 143 -146 0
1 -143 201 0
1 -143 193 0
1 143 -161 0
1 -143 -152 0
1 143 155 0
1 -143 132 0
1 146 -204 0
1 146 -192 0
1 146 -159 0
1 146 -149 0
1 -146 154 0
1 146 -205 0
1 -146 -206 0
1 -146 -193 0
1 -146 -161 0
1 -146 152 0
1 146 -155 0
1 -146 -143 0
1 -157 99 0
1 -157 -192 0
1 157 -148 0
1 -157 147 0
1 157 156 0
1 157 -141 0
1 157 -198 0
1 157 158 0
1 157 -151 0
1 157 90 0
1 158 191 0
1 -158 157 0
1 158 148 0
1 -158 -77 0
1 -158 -147 0
1 -158 -156 0
1 -158 -141 0
1 -158 -106 0
1 158 198 0
1 158 193 0
1 158 -80 0
1 158 -151 0
1 -158 -90 0
1 -169 -191 0
1 -169 114 0
1 169 204 0
1 169 153 0
1 169 -148 0
1 -169 -207 0
1 -169 -156 0
1 169 -162 0
1 -169 -208 0
1 -169 -90 0
1 -171 -191 0
1 171 169 0
1 171 153 0
1 -171 148 0
1 171 -160 0
1 -171 207 0
1 171 -156 0
1 -171 -141 0
1 171 115 0
1 171 206 0
1 171 -198 0
1 171 -162 0
1 171 208 0
1 -148 -166 0
1 -148 -169 0
1 -148 -63 0
1 -148 -159 0
1 148 -209 0
1 -148 178 0
1 148 -171 0
1 -148 -158 0
1 148 -151 0
1 148 -161 0
1 151 -166 0
1 151 157 0
1 -151 -148 0
1 151 159 0
1 151 -209 0
1 -151 178 0
1 -151 -167 0
1 -151 -171 0
1 -151 158 0
1 151 -139 0
1 -151 161 0
1 151 179 0
1 -153 -199 0
1 -153 169 0
1 -153 -65 0
1 -153 157 0
1 153 -209 0
1 153 -210 0
1 -153 201 0
1 -153 -171 0
1 -153 198 0
1 153 158 0
1 198 -211 0
1 -198 199 0
1 198 169 0
1 -198 -157 0
1 -198 159 0
1 -198 -209 0
1 -198 210 0
1 198 201 0
1 198 -171 0
1 198 158 0
1 -198 -161 0
1 166 -110 0
1 -166 -199 0
1 166 -148 0
1 -166 -160 0
1 166 156 0
1 166 167 0
1 166 165 0
1 166 151 0
1 166 208 0
1 166 90 0
1 -166 -164 0
1 -167 148 0
1 -167 -160 0
1 -167 207 0
1 -167 -156 0
1 167 85 0
1 -167 -111 0
1 -167 -165 0
1 -167 -201 0
1 167 -151 0
1 -167 -162 0
1 167 -208 0
1 -167 90 0
1 -167 -87 0
1 -167 164 0
1 -179 211 0
1 -179 148 0
1 179 160 0
1 -179 -207 0
1 179 -170 0
1 -179 178 0
1 179 -165 0
1 -179 -151 0
1 179 162 0
1 -179 -208 0
1 -179 -172 0
1 179 -176 0
1 -178 148 0
1 178 -179 0
1 178 170 0
1 -178 -212 0
1 178 210 0
1 -178 -165 0
1 178 151 0
1 -178 -208 0
1 -178 172 0
1 -178 168 0
1 -178 164 0
1 207 -166 0
1 -207 169 0
1 207 208 0
1 207 147 0
1 207 -185 0
1 -207 -177 0
1 -207 -178 0
1 207 -167 0
1 -207 186 0
1 207 175 0
1 207 179 0
1 -208 -166 0
1 208 -169 0
1 208 185 0
1 208 -177 0
1 208 178 0
1 -208 167 0
1 208 171 0
1 -208 -75 0
1 208 -175 0
1 160 -166 0
1 160 169 0
1 -160 77 0
1 -160 213 0
1 -160 209 0
1 160 178 0
1 -160 167 0
1 -160 171 0
1 160 162 0
1 -160 -179 0
1 162 -166 0
1 -162 -160 0
1 162 -213 0
1 162 209 0
1 162 -178 0
1 -162 167 0
1 -162 171 0
1 162 -80 0
1 162 -214 0
1 162 179 0
1 175 109 0
1 -175 -207 0
1 175 -177 0
1 175 -212 0
1 175 -165 0
1 -175 -163 0
1 175 -107 0
1 -175 -208 0
1 -175 -172 0
1 -175 184 0
1 175 168 0
1 -175 -164 0
1 -177 94 0
1 -177 109 0
1 -177 182 0
1 177 170 0
1 -177 209 0
1 177 212 0
1 177 -165 0
1 -177 -163 0
1 177 107 0
1 177 -208 0
1 177 172 0
1 -177 -175 0
1 -177 -164 0
1 186 -109 0
1 186 185 0
1 186 207 0
1 186 -170 0
1 186 -212 0
1 186 107 0
1 -186 208 0
1 186 -183 0
1 -186 168 0
1 -185 181 0
1 185 207 0
1 -185 213 0
1 185 170 0
1 -185 172 0
1 -185 212 0
1 185 107 0
1 185 -186 0
1 -212 185 0
1 212 177 0
1 212 85 0
1 -212 -178 0
1 -212 -168 0
1 -212 186 0
1 -212 175 0
1 168 -185 0
1 -168 -177 0
1 168 -178 0
1 -168 -212 0
1 168 -186 0
1 168 -87 0
1 -168 -179 0
1 170 185 0
1 170 156 0
1 170 177 0
1 170 172 0
1 -170 -186 0
1 -170 -175 0
1 -172 185 0
1 172 177 0
1 -172 170 0
1 -172 -178 0
1 172 90 0
1 172 186 0
1 -172 175 0
1 192 -189 0
1 192 -137 0
1 -192 135 0
1 192 146 0
1 192 -193 0
1 -192 190 0
1 192 -188 0
1 -192 -187 0
1 -192 143 0
1 -193 192 0
1 193 -137 0
1 -193 -135 0
1 193 146 0
1 -193 158 0
1 -193 -136 0
1 193 187 0
1 -193 143 0
1 -204 215 0
1 204 -189 0
1 204 195 0
1 -204 146 0
1 204 206 0
1 -204 190 0
1 204 -188 0
1 -204 -196 0
1 204 -194 0
1 -204 -143 0
1 206 204 0
1 -206 -215 0
1 -206 -189 0
1 -206 -197 0
1 206 -195 0
1 206 -171 0
1 -206 190 0
1 206 188 0
1 206 196 0
1 206 194 0
1 -206 143 0
1 188 211 0
1 -188 199 0
1 -188 -204 0
1 -188 192 0
1 -188 189 0
1 -188 210 0
1 188 -201 0
1 188 193 0
1 -188 -126 0
1 -189 211 0
1 189 -199 0
1 189 204 0
1 189 -192 0
1 189 -127 0
1 -189 -210 0
1 189 -201 0
1 -189 -193 0
1 189 -188 0
1 -190 -192 0
1 -190 215 0
1 -190 -206 0
1 190 -193 0
1 -190 -128 0
1 -215 204 0
1 215 -192 0
1 215 -190 0
1 -215 129 0
1 -215 -206 0
1 215 193 0
1 199 166 0
1 199 -191 0
1 -199 153 0
1 199 195 0
1 -199 -146 0
1 -199 201 0
1 -199 -198 0
1 -199 -188 0
1 199 194 0
1 -199 143 0
1 -201 189 0
1 -201 197 0
1 -201 195 0
1 201 146 0
1 201 -167 0
1 201 -141 0
1 201 -198 0
1 -201 -188 0
1 201 196 0
1 201 143 0
1 -211 203 0
1 211 200 0
1 211 -153 0
1 211 -189 0
1 -211 195 0
1 -211 210 0
1 211 -202 0
1 211 198 0
1 -211 -188 0
1 211 196 0
1 211 -194 0
1 -211 -179 0
1 -210 -211 0
1 210 203 0
1 210 -200 0
1 -210 -189 0
1 210 -197 0
1 210 195 0
1 -210 178 0
1 -210 205 0
1 -210 -202 0
1 210 -198 0
1 210 -188 0
1 194 -211 0
1 194 199 0
1 -194 -204 0
1 -194 -213 0
1 -194 -209 0
1 -194 195 0
1 -194 206 0
1 -195 -211 0
1 195 199 0
1 -195 204 0
1 -195 213 0
1 195 -209 0
1 195 -210 0
1 -195 206 0
1 -195 214 0
1 195 194 0
1 196 -211 0
1 196 199 0
1 -196 -204 0
1 -196 197 0
1 196 210 0
1 196 201 0
1 -196 -206 0
1 197 -211 0
1 -197 204 0
1 197 137 0
1 197 -201 0
1 -197 -206 0
1 197 -196 0
1 209 203 0
1 209 200 0
1 209 153 0
1 -209 -160 0
1 209 177 0
1 -209 -195 0
1 209 205 0
1 -209 -202 0
1 209 -198 0
1 -209 151 0
1 -209 162 0
1 -209 194 0
1 214 203 0
1 214 -200 0
1 -214 160 0
1 214 213 0
1 -214 195 0
1 -214 205 0
1 214 -202 0
1 -214 -162 0
1 -214 -186 0
1 214 -194 0
1 -213 -200 0
1 213 160 0
1 -213 185 0
1 -213 -195 0
1 213 162 0
1 -213 -214 0
1 -213 194 0
1 200 211 0
1 200 213 0
1 -200 209 0
1 200 202 0
1 -200 214 0
1 -202 -211 0
1 202 -200 0
1 -202 213 0
1 202 209 0
1 202 210 0
1 -202 -141 0
1 -202 214 0
1 203 -211 0
1 203 210 0
1 -203 -205 0
1 -203 214 0
1 -203 -143 0
1 205 203 0
1 -205 -213 0
1 205 -209 0
1 -205 -210 0
1 205 214 0
